(declare-fun papp7 () Int)
(declare-fun GHC.Base.id () Int)
(declare-fun totalityError () Int)
(declare-fun GHC.Types.$91$$93$ () Int)
(declare-fun lq_tmp$36$x$35$$35$1790 () Int)
(declare-fun lq_tmp$36$x$35$$35$1789 () Int)
(declare-fun GHC.Real.divMod () Int)
(declare-fun Data.ByteString.Utils.UnalignedAccess.unalignedWriteU16 () Int)
(declare-fun GHC.Float.sinh () Int)
(declare-fun lq_tmp$36$x$35$$35$1892 () Int)
(declare-fun GHC.Types.C$35$ () Int)
(declare-fun plen () Int)
(declare-fun GHC.Real.$47$ () Int)
(declare-fun GHC.Float.atanh () Int)
(declare-fun lq_tmp$36$x$35$$35$1865 () Int)
(declare-fun lq_tmp$36$x$35$$35$1037 () Int)
(declare-fun GHC.Float.tan () Int)
(declare-fun GHC.Word.W32$35$ () Int)
(declare-fun GHC.Types.$58$ () Int)
(declare-fun tail () Int)
(declare-fun GHC.Float.asinh () Int)
(declare-fun lq_tmp$36$x$35$$35$1826 () Int)
(declare-fun lq_tmp$36$x$35$$35$841 () Int)
(declare-fun GHC.Float.pi () Int)
(declare-fun GHC.Real.div () Int)
(declare-fun lq_tmp$36$x$35$$35$1526 () Int)
(declare-fun lq_tmp$36$x$35$$35$1001 () Int)
(declare-fun lq_tmp$36$x$35$$35$577 () Int)
(declare-fun GHC.Float.tanh () Int)
(declare-fun lq_tmp$36$x$35$$35$1832 () Int)
(declare-fun lq_tmp$36$x$35$$35$476 () Int)
(declare-fun GHC.Word.W8$35$ () Int)
(declare-fun GHC.Tuple.$40$$44$$41$ () Int)
(declare-fun GHC.Real.$94$ () Int)
(declare-fun lq_anf$36$$35$$35$7205759403792812223$35$$35$d4Qn () Int)
(declare-fun lq_tmp$36$x$35$$35$1569 () Int)
(declare-fun lq_tmp$36$x$35$$35$1528 () Int)
(declare-fun GHC.Base.$36$ () Int)
(declare-fun papp5 () Int)
(declare-fun snd () Int)
(declare-fun lq_tmp$36$x$35$$35$1264 () Int)
(declare-fun GHC.Base.$43$$43$ () Int)
(declare-fun GHC.Maybe.Just () Int)
(declare-fun x_Tuple22 () Int)
(declare-fun lq_anf$36$$35$$35$7205759403792812149$35$$35$d4Pb () Int)
(declare-fun fix$36$$36$dIP_a4Os () Int)
(declare-fun lq_tmp$36$x$35$$35$1306 () Int)
(declare-fun lq_tmp$36$x$35$$35$1104 () Int)
(declare-fun GHC.Real.fromIntegral () Int)
(declare-fun GHC.IO.Exception.IOError () Int)
(declare-fun lq_anf$36$$35$$35$7205759403792812204$35$$35$d4Q4 () Int)
(declare-fun lq_anf$36$$35$$35$7205759403792812147$35$$35$d4P9 () Int)
(declare-fun GHC.Types.Module () Int)
(declare-fun GHC.Stack.Types.FreezeCallStack () Int)
(declare-fun lq_anf$36$$35$$35$7205759403792812206$35$$35$d4Q6 () Int)
(declare-fun GHC.Types.TrNameD () Int)
(declare-fun Data.ByteString.Utils.UnalignedAccess.unalignedWriteFloat () Int)
(declare-fun pbase () Int)
(declare-fun lit$36$main () Str)
(declare-fun lq_anf$36$$35$$35$7205759403792812187$35$$35$d4PN () Int)
(declare-fun GHC.Float.sqrt () Int)
(declare-fun lq_anf$36$$35$$35$7205759403792812185$35$$35$d4PL () Int)
(declare-fun deref () Int)
(declare-fun lq_tmp$36$x$35$$35$1366 () Real)
(declare-fun lq_tmp$36$x$35$$35$474 () Int)
(declare-fun lq_anf$36$$35$$35$7205759403792812242$35$$35$d4QG () Int)
(declare-fun lit$36$undefined () Str)
(declare-fun lq_tmp$36$x$35$$35$1602 () Int)
(declare-fun addrLen () Int)
(declare-fun GHC.Real.$36$W$58$$37$ () Int)
(declare-fun lq_tmp$36$x$35$$35$739 () Int)
(declare-fun papp3 () Int)
(declare-fun GHC.Real.toInteger () Int)
(declare-fun lq_tmp$36$x$35$$35$1103 () Int)
(declare-fun lq_anf$36$$35$$35$7205759403792812225$35$$35$d4Qp () Int)
(declare-fun GHC.Float.logBase () Int)
(declare-fun GHC.Ptr.FunPtr () Int)
(declare-fun lit$36$Data.ByteString.Utils.UnalignedAccess () Str)
(declare-fun GHC.Enum.C$58$Bounded () Int)
(declare-fun GHC.Types.True () Bool)
(declare-fun GHC.CString.unpackCString$35$ () Int)
(declare-fun lq_tmp$36$x$35$$35$1791 () Int)
(declare-fun GHC.Float.asin () Int)
(declare-fun lq_tmp$36$x$35$$35$1263 () Int)
(declare-fun lq_tmp$36$x$35$$35$517 () Int)
(declare-fun GHC.Stack.Types.EmptyCallStack () Int)
(declare-fun x_Tuple33 () Int)
(declare-fun Data.Either.Right () Int)
(declare-fun GHC.Float.atan () Int)
(declare-fun GHC.Ptr.minusPtr () Int)
(declare-fun isNullPtr () Int)
(declare-fun GHC.Float.$42$$42$ () Int)
(declare-fun GHC.Stack.Types.emptyCallStack () Int)
(declare-fun lq_tmp$36$x$35$$35$1629 () Real)
(declare-fun cast_as () Int)
(declare-fun GHC.Ptr.Ptr () Int)
(declare-fun lq_tmp$36$x$35$$35$1630 () Int)
(declare-fun cast_as_int () Int)
(declare-fun GHC.Num.$43$ () Int)
(declare-fun GHC.Types.F$35$ () Int)
(declare-fun Data.ByteString.Utils.UnalignedAccess.unalignedWriteDouble () Int)
(declare-fun len () Int)
(declare-fun fix$36$$36$dIP_a4OE () Int)
(declare-fun GHC.Types.LT () Int)
(declare-fun Data.ByteString.Utils.UnalignedAccess.unalignedWriteU64 () Int)
(declare-fun GHC.Tuple.$40$$44$$44$$41$ () Int)
(declare-fun papp1 () Int)
(declare-fun fix$36$$36$dIP_a4Oo () Int)
(declare-fun GHC.Err.undefined () Int)
(declare-fun GHC.Ptr.castPtr () Int)
(declare-fun papp6 () Int)
(declare-fun GHC.Real.mod () Int)
(declare-fun lq_anf$36$$35$$35$7205759403792812244$35$$35$d4QI () Int)
(declare-fun lq_anf$36$$35$$35$7205759403792812166$35$$35$d4Ps () Int)
(declare-fun GHC.Float.acos () Int)
(declare-fun GHC.Classes.C$58$IP () Int)
(declare-fun Data.Either.Left () Int)
(declare-fun liquid_internal_this () Int)
(declare-fun GHC.Real.fromRational () Int)
(declare-fun fldList () Int)
(declare-fun lq_tmp$36$x$35$$35$1339 () Int)
(declare-fun GHC.Tuple.$40$$41$ () Int)
(declare-fun lqdc$35$$35$$36$select$35$$35$GHC.Maybe.Just$35$$35$1 () Int)
(declare-fun lq_tmp$36$x$35$$35$1265 () Int)
(declare-fun lq_tmp$36$x$35$$35$511 () Int)
(declare-fun GHC.Types.I$35$ () Int)
(declare-fun x_Tuple31 () Int)
(declare-fun GHC.Num.Integer.IS () Int)
(declare-fun GHC.Word.W16$35$ () Int)
(declare-fun GHC.Real.quot () Int)
(declare-fun Data.Tuple.fst () Int)
(declare-fun GHC.Word.W64$35$ () Int)
(declare-fun Foreign.Ptr.IntPtr () Int)
(declare-fun GHC.Float.acosh () Int)
(declare-fun lit$36$$47$Users$47$pratyushsahu$47$Desktop$47$Research$47$bytestring_lh$45$llm$47$Data$47$ByteString$47$Utils$47$UnalignedAccess.hs () Str)
(declare-fun Data.Tuple.snd () Int)
(declare-fun Data.ByteString.Utils.UnalignedAccess.unalignedReadU64 () Int)
(declare-fun GHC.Types.EQ () Int)
(declare-fun GHC.Real.$58$$37$ () Int)
(declare-fun Data.ByteString.Utils.UnalignedAccess.unalignedWriteU32 () Int)
(declare-fun fst () Int)
(declare-fun lq_tmp$36$x$35$$35$1563 () Int)
(declare-fun lq_tmp$36$x$35$$35$840 () Int)
(declare-fun lq_tmp$36$x$35$$35$774 () Int)
(declare-fun lq_tmp$36$x$35$$35$1527 () Int)
(declare-fun GHC.Num.negate () Int)
(declare-fun lq_anf$36$$35$$35$7205759403792812130$35$$35$d4OS () Int)
(declare-fun GHC.Num.$45$ () Int)
(declare-fun GHC.Real.rem () Int)
(declare-fun lq_tmp$36$x$35$$35$1000 () Int)
(declare-fun GHC.Real.recip () Int)
(declare-fun autolen () Int)
(declare-fun GHC.Float.cosh () Int)
(declare-fun GHC.Base.. () Int)
(declare-fun papp4 () Int)
(declare-fun lq_tmp$36$x$35$$35$813 () Int)
(declare-fun lq_tmp$36$x$35$$35$578 () Int)
(declare-fun GHC.Stack.Types.PushCallStack () Int)
(declare-fun GHC.Stack.Types.pushCallStack () Int)
(declare-fun GHC.Real.quotRem () Int)
(declare-fun GHC.Stack.Types.SrcLoc () Int)
(declare-fun GHC.Num.fromInteger () Int)
(declare-fun GHC.Float.log () Int)
(declare-fun lq_tmp$36$x$35$$35$1300 () Int)
(declare-fun GHC.Ptr.plusPtr () Int)
(declare-fun GHC.Float.sin () Int)
(declare-fun x_Tuple21 () Int)
(declare-fun GHC.Num.abs () Int)
(declare-fun lq_anf$36$$35$$35$7205759403792812128$35$$35$d4OQ () Int)
(declare-fun lq_tmp$36$x$35$$35$780 () Int)
(declare-fun head () Int)
(declare-fun lq_anf$36$$35$$35$7205759403792812168$35$$35$d4Pu () Int)
(declare-fun fix$36$$36$dIP_a4Ow () Int)
(declare-fun GHC.Maybe.Nothing () Int)
(declare-fun lq_tmp$36$x$35$$35$550 () Int)
(declare-fun GHC.Types.D$35$ () Int)
(declare-fun GHC.Num.Integer.IP () Int)
(declare-fun Foreign.Ptr.WordPtr () Int)
(declare-fun lq_tmp$36$x$35$$35$1076 () Int)
(declare-fun GHC.Base.map () Int)
(declare-fun x_Tuple32 () Int)
(declare-fun lq_tmp$36$x$35$$35$475 () Int)
(declare-fun GHC.Err.error () Int)
(declare-fun GHC.Float.exp () Int)
(declare-fun fix$36$$36$dIP_a4OA () Int)
(declare-fun lq_tmp$36$x$35$$35$1002 () Int)
(declare-fun GHC.Types.TrNameS () Int)
(declare-fun lq_tmp$36$x$35$$35$1367 () Int)
(declare-fun lq_tmp$36$x$35$$35$737 () Int)
(declare-fun GHC.Num.Integer.IN () Int)
(declare-fun GHC.Num.$42$ () Int)
(declare-fun GHC.Types.False () Bool)
(declare-fun lq_tmp$36$x$35$$35$1043 () Int)
(declare-fun papp2 () Int)
(declare-fun GHC.Float.cos () Int)
(declare-fun GHC.Types.GT () Int)
(declare-fun fix$36$$36$dIP_a4Ok () Int)
(declare-fun lq_tmp$36$x$35$$35$738 () Int)
(declare-fun apply$35$$35$31 (Int (_ BitVec 64)) Bool)
(declare-fun apply$35$$35$25 (Int (_ BitVec 32)) Bool)
(declare-fun apply$35$$35$1 (Int Int) Bool)
(declare-fun apply$35$$35$5 (Int Int) (_ BitVec 64))
(declare-fun apply$35$$35$4 (Int Int) (_ BitVec 32))
(declare-fun apply$35$$35$8 (Int Bool) Real)
(declare-fun apply$35$$35$35 (Int (_ BitVec 64)) (_ BitVec 64))
(declare-fun apply$35$$35$34 (Int (_ BitVec 64)) (_ BitVec 32))
(declare-fun apply$35$$35$28 (Int (_ BitVec 32)) (_ BitVec 32))
(declare-fun apply$35$$35$29 (Int (_ BitVec 32)) (_ BitVec 64))
(declare-fun apply$35$$35$14 (Int Real) Real)
(declare-fun apply$35$$35$27 (Int (_ BitVec 32)) Str)
(declare-fun apply$35$$35$33 (Int (_ BitVec 64)) Str)
(declare-fun apply$35$$35$19 (Int Str) Bool)
(declare-fun apply$35$$35$6 (Int Bool) Int)
(declare-fun apply$35$$35$13 (Int Real) Bool)
(declare-fun apply$35$$35$21 (Int Str) Str)
(declare-fun apply$35$$35$22 (Int Str) (_ BitVec 32))
(declare-fun apply$35$$35$23 (Int Str) (_ BitVec 64))
(declare-fun apply$35$$35$2 (Int Int) Real)
(declare-fun apply$35$$35$15 (Int Real) Str)
(declare-fun apply$35$$35$30 (Int (_ BitVec 64)) Int)
(declare-fun apply$35$$35$24 (Int (_ BitVec 32)) Int)
(declare-fun apply$35$$35$18 (Int Str) Int)
(declare-fun apply$35$$35$0 (Int Int) Int)
(declare-fun apply$35$$35$9 (Int Bool) Str)
(declare-fun apply$35$$35$10 (Int Bool) (_ BitVec 32))
(declare-fun apply$35$$35$11 (Int Bool) (_ BitVec 64))
(declare-fun apply$35$$35$32 (Int (_ BitVec 64)) Real)
(declare-fun apply$35$$35$26 (Int (_ BitVec 32)) Real)
(declare-fun apply$35$$35$16 (Int Real) (_ BitVec 32))
(declare-fun apply$35$$35$17 (Int Real) (_ BitVec 64))
(declare-fun apply$35$$35$20 (Int Str) Real)
(declare-fun apply$35$$35$3 (Int Int) Str)
(declare-fun apply$35$$35$7 (Int Bool) Bool)
(declare-fun apply$35$$35$12 (Int Real) Int)
(declare-fun coerce$35$$35$31 ((_ BitVec 64)) Bool)
(declare-fun coerce$35$$35$25 ((_ BitVec 32)) Bool)
(declare-fun coerce$35$$35$1 (Int) Bool)
(declare-fun coerce$35$$35$5 (Int) (_ BitVec 64))
(declare-fun coerce$35$$35$4 (Int) (_ BitVec 32))
(declare-fun coerce$35$$35$8 (Bool) Real)
(declare-fun coerce$35$$35$35 ((_ BitVec 64)) (_ BitVec 64))
(declare-fun coerce$35$$35$34 ((_ BitVec 64)) (_ BitVec 32))
(declare-fun coerce$35$$35$28 ((_ BitVec 32)) (_ BitVec 32))
(declare-fun coerce$35$$35$29 ((_ BitVec 32)) (_ BitVec 64))
(declare-fun coerce$35$$35$14 (Real) Real)
(declare-fun coerce$35$$35$27 ((_ BitVec 32)) Str)
(declare-fun coerce$35$$35$33 ((_ BitVec 64)) Str)
(declare-fun coerce$35$$35$19 (Str) Bool)
(declare-fun coerce$35$$35$6 (Bool) Int)
(declare-fun coerce$35$$35$13 (Real) Bool)
(declare-fun coerce$35$$35$21 (Str) Str)
(declare-fun coerce$35$$35$22 (Str) (_ BitVec 32))
(declare-fun coerce$35$$35$23 (Str) (_ BitVec 64))
(declare-fun coerce$35$$35$2 (Int) Real)
(declare-fun coerce$35$$35$15 (Real) Str)
(declare-fun coerce$35$$35$30 ((_ BitVec 64)) Int)
(declare-fun coerce$35$$35$24 ((_ BitVec 32)) Int)
(declare-fun coerce$35$$35$18 (Str) Int)
(declare-fun coerce$35$$35$0 (Int) Int)
(declare-fun coerce$35$$35$9 (Bool) Str)
(declare-fun coerce$35$$35$10 (Bool) (_ BitVec 32))
(declare-fun coerce$35$$35$11 (Bool) (_ BitVec 64))
(declare-fun coerce$35$$35$32 ((_ BitVec 64)) Real)
(declare-fun coerce$35$$35$26 ((_ BitVec 32)) Real)
(declare-fun coerce$35$$35$16 (Real) (_ BitVec 32))
(declare-fun coerce$35$$35$17 (Real) (_ BitVec 64))
(declare-fun coerce$35$$35$20 (Str) Real)
(declare-fun coerce$35$$35$3 (Int) Str)
(declare-fun coerce$35$$35$7 (Bool) Bool)
(declare-fun coerce$35$$35$12 (Real) Int)
(declare-fun smt_lambda$35$$35$31 ((_ BitVec 64) Bool) Int)
(declare-fun smt_lambda$35$$35$25 ((_ BitVec 32) Bool) Int)
(declare-fun smt_lambda$35$$35$1 (Int Bool) Int)
(declare-fun smt_lambda$35$$35$5 (Int (_ BitVec 64)) Int)
(declare-fun smt_lambda$35$$35$4 (Int (_ BitVec 32)) Int)
(declare-fun smt_lambda$35$$35$8 (Bool Real) Int)
(declare-fun smt_lambda$35$$35$35 ((_ BitVec 64) (_ BitVec 64)) Int)
(declare-fun smt_lambda$35$$35$34 ((_ BitVec 64) (_ BitVec 32)) Int)
(declare-fun smt_lambda$35$$35$28 ((_ BitVec 32) (_ BitVec 32)) Int)
(declare-fun smt_lambda$35$$35$29 ((_ BitVec 32) (_ BitVec 64)) Int)
(declare-fun smt_lambda$35$$35$14 (Real Real) Int)
(declare-fun smt_lambda$35$$35$27 ((_ BitVec 32) Str) Int)
(declare-fun smt_lambda$35$$35$33 ((_ BitVec 64) Str) Int)
(declare-fun smt_lambda$35$$35$19 (Str Bool) Int)
(declare-fun smt_lambda$35$$35$6 (Bool Int) Int)
(declare-fun smt_lambda$35$$35$13 (Real Bool) Int)
(declare-fun smt_lambda$35$$35$21 (Str Str) Int)
(declare-fun smt_lambda$35$$35$22 (Str (_ BitVec 32)) Int)
(declare-fun smt_lambda$35$$35$23 (Str (_ BitVec 64)) Int)
(declare-fun smt_lambda$35$$35$2 (Int Real) Int)
(declare-fun smt_lambda$35$$35$15 (Real Str) Int)
(declare-fun smt_lambda$35$$35$30 ((_ BitVec 64) Int) Int)
(declare-fun smt_lambda$35$$35$24 ((_ BitVec 32) Int) Int)
(declare-fun smt_lambda$35$$35$18 (Str Int) Int)
(declare-fun smt_lambda$35$$35$0 (Int Int) Int)
(declare-fun smt_lambda$35$$35$9 (Bool Str) Int)
(declare-fun smt_lambda$35$$35$10 (Bool (_ BitVec 32)) Int)
(declare-fun smt_lambda$35$$35$11 (Bool (_ BitVec 64)) Int)
(declare-fun smt_lambda$35$$35$32 ((_ BitVec 64) Real) Int)
(declare-fun smt_lambda$35$$35$26 ((_ BitVec 32) Real) Int)
(declare-fun smt_lambda$35$$35$16 (Real (_ BitVec 32)) Int)
(declare-fun smt_lambda$35$$35$17 (Real (_ BitVec 64)) Int)
(declare-fun smt_lambda$35$$35$20 (Str Real) Int)
(declare-fun smt_lambda$35$$35$3 (Int Str) Int)
(declare-fun smt_lambda$35$$35$7 (Bool Bool) Int)
(declare-fun smt_lambda$35$$35$12 (Real Int) Int)
(declare-fun lam_arg$35$$35$1$35$$35$6 () Bool)
(declare-fun lam_arg$35$$35$2$35$$35$6 () Bool)
(declare-fun lam_arg$35$$35$3$35$$35$6 () Bool)
(declare-fun lam_arg$35$$35$4$35$$35$6 () Bool)
(declare-fun lam_arg$35$$35$5$35$$35$6 () Bool)
(declare-fun lam_arg$35$$35$6$35$$35$6 () Bool)
(declare-fun lam_arg$35$$35$7$35$$35$6 () Bool)
(declare-fun lam_arg$35$$35$1$35$$35$30 () (_ BitVec 64))
(declare-fun lam_arg$35$$35$2$35$$35$30 () (_ BitVec 64))
(declare-fun lam_arg$35$$35$3$35$$35$30 () (_ BitVec 64))
(declare-fun lam_arg$35$$35$4$35$$35$30 () (_ BitVec 64))
(declare-fun lam_arg$35$$35$5$35$$35$30 () (_ BitVec 64))
(declare-fun lam_arg$35$$35$6$35$$35$30 () (_ BitVec 64))
(declare-fun lam_arg$35$$35$7$35$$35$30 () (_ BitVec 64))
(declare-fun lam_arg$35$$35$1$35$$35$24 () (_ BitVec 32))
(declare-fun lam_arg$35$$35$2$35$$35$24 () (_ BitVec 32))
(declare-fun lam_arg$35$$35$3$35$$35$24 () (_ BitVec 32))
(declare-fun lam_arg$35$$35$4$35$$35$24 () (_ BitVec 32))
(declare-fun lam_arg$35$$35$5$35$$35$24 () (_ BitVec 32))
(declare-fun lam_arg$35$$35$6$35$$35$24 () (_ BitVec 32))
(declare-fun lam_arg$35$$35$7$35$$35$24 () (_ BitVec 32))
(declare-fun lam_arg$35$$35$1$35$$35$18 () Str)
(declare-fun lam_arg$35$$35$2$35$$35$18 () Str)
(declare-fun lam_arg$35$$35$3$35$$35$18 () Str)
(declare-fun lam_arg$35$$35$4$35$$35$18 () Str)
(declare-fun lam_arg$35$$35$5$35$$35$18 () Str)
(declare-fun lam_arg$35$$35$6$35$$35$18 () Str)
(declare-fun lam_arg$35$$35$7$35$$35$18 () Str)
(declare-fun lam_arg$35$$35$1$35$$35$0 () Int)
(declare-fun lam_arg$35$$35$2$35$$35$0 () Int)
(declare-fun lam_arg$35$$35$3$35$$35$0 () Int)
(declare-fun lam_arg$35$$35$4$35$$35$0 () Int)
(declare-fun lam_arg$35$$35$5$35$$35$0 () Int)
(declare-fun lam_arg$35$$35$6$35$$35$0 () Int)
(declare-fun lam_arg$35$$35$7$35$$35$0 () Int)
(declare-fun lam_arg$35$$35$1$35$$35$12 () Real)
(declare-fun lam_arg$35$$35$2$35$$35$12 () Real)
(declare-fun lam_arg$35$$35$3$35$$35$12 () Real)
(declare-fun lam_arg$35$$35$4$35$$35$12 () Real)
(declare-fun lam_arg$35$$35$5$35$$35$12 () Real)
(declare-fun lam_arg$35$$35$6$35$$35$12 () Real)
(declare-fun lam_arg$35$$35$7$35$$35$12 () Real)


(assert (distinct lit$36$$47$Users$47$pratyushsahu$47$Desktop$47$Research$47$bytestring_lh$45$llm$47$Data$47$ByteString$47$Utils$47$UnalignedAccess.hs lit$36$Data.ByteString.Utils.UnalignedAccess lit$36$undefined lit$36$main))
(assert (distinct GHC.Types.GT GHC.Types.EQ GHC.Types.LT))
(assert (distinct GHC.Types.False GHC.Types.True))
(assert (= (strLen lit$36$main) 4))
(assert (= (strLen lit$36$undefined) 9))
(assert (= (strLen lit$36$Data.ByteString.Utils.UnalignedAccess) 37))
(assert (= (strLen lit$36$$47$Users$47$pratyushsahu$47$Desktop$47$Research$47$bytestring_lh$45$llm$47$Data$47$ByteString$47$Utils$47$UnalignedAccess.hs) 95))
(push 1)
(push 1)
(pop 1)
(pop 1)
